STUDENTS = {Rose,Carole,Sidney,Sue,Yvonne,Karl,Louise,Johnny,Peter,Louis,Wade,Marcus,Matthew,Chris,Ruby,Cameron,Katharine,Brad,Harriet,Constance,Francis,Lisa,Dianne,Arlene,Randy,Anthony,Malcolm,Stanley,Vickie,Geraldine,Leigh,Marshall,Alison,Gail,Sheryl,Anita,Erika,Edna,Anne,Joy,Joan,Erin,Benjamin,Christine,George,Kay,Betty,Jacob,Tracy,Clifford,Dale,Lorraine,Susan,Mike,Ashley,Emily,Wanda,Frederick,Tom,Leah,Julie,Donald,Jeanette,Florence,Phillip,Ben,Leonard,Brent,Clara,Steve,Charlene,Cynthia,Juanita,Stephen,Max,Dean,Renee,Frances,Elizabeth,Brandon,Justin,Claude,Carlos,Jordan,Margaret,Andrea,Kelly,Arnold,Colleen,Veronica,Don,Tony,Dan,Milton,David,Dawn,Juan,Fred,Henry,Denise,Ricky,Vanessa,Wallace,Curtis,Michele,Sara,Jerry,Tim,Maurice,Luis,Regina,Pat,Judy,Robert,Jenny,Jessica,Daniel,Danny,Gwendolyn,Geoffrey,Judith,Shirley,Alex,Albert,Kara,Vivian,Meredith,Gregory,Neil,Kurt,Ellen,Paige,Jennifer,Brenda,Howard,Jan,Erica,Jane,Monica,Kathy,Edgar,Russell,Marianne,Paul,Charles,Patsy,Shelley,Rita,Miriam,Dwight};
T = 150;
LWB = 3;
UPB = 5;
apart = [|Rose,Tracy|Carole,Justin|Sidney,Matthew|Yvonne,Anita|Yvonne,Susan|Karl,Christine|Karl,Mike|Karl,Emily|Peter,Leah|Louis,Jan|Wade,Luis|Marcus,Ruby|Matthew,Christine|Matthew,Tom|Matthew,Andrea|Chris,Tony|Cameron,Dianne|Cameron,Erin|Katharine,Edna|Harriet,Sheryl|Constance,Brent|Constance,Jenny|Francis,Don|Francis,Judith|Lisa,Erin|Dianne,Arlene|Randy,Mike|Randy,Miriam|Malcolm,Benjamin|Malcolm,Don|Malcolm,Pat|Malcolm,Brenda|Stanley,Leigh|Stanley,Andrea|Stanley,Don|Stanley,Ricky|Geraldine,Christine|Marshall,Tom|Marshall,Ricky|Alison,Brent|Gail,Sheryl|Gail,Pat|Sheryl,Wanda|Sheryl,Monica|Anita,Joan|Erika,Judith|Edna,Carlos|Joy,Shirley|Erin,Steve|Erin,Jennifer|Christine,Gregory|George,Carlos|Betty,Arnold|Betty,Vanessa|Betty,Jane|Tracy,Julie|Tracy,Maurice|Clifford,Brent|Dale,Steve|Lorraine,Don|Lorraine,Milton|Susan,Curtis|Susan,Dwight|Mike,Frances|Wanda,Fred|Frederick,Justin|Tom,Paul|Leah,Jordan|Leah,Fred|Leah,Patsy|Donald,Brandon|Donald,Gregory|Jeanette,Jennifer|Florence,Jane|Phillip,Sara|Phillip,Danny|Ben,Brandon|Clara,Judith|Steve,Don|Steve,Tim|Steve,Shelley|Charlene,Elizabeth|Stephen,Vivian|Dean,Paul|Dean,Charles|Renee,Judy|Frances,Miriam|Elizabeth,Jerry|Jordan,Shirley|Margaret,Andrea|Don,Luis|Daniel,Jennifer|Danny,Gwendolyn|Gwendolyn,Alex|Gwendolyn,Shelley|Judith,Neil|Brenda,Dwight|];
together = [|Carole,Edna|Carole,Jeanette|Sidney,Vickie|Sidney,Tracy|Sidney,Jordan|Yvonne,Anne|Yvonne,Ricky|Karl,Kurt|Louise,Constance|Louise,Geoffrey|Peter,Betty|Peter,Mike|Peter,Pat|Louis,Dianne|Louis,Howard|Wade,Juanita|Wade,Dawn|Wade,Fred|Wade,Danny|Marcus,Russell|Matthew,Ellen|Chris,Christine|Chris,Frederick|Ruby,Denise|Cameron,Judy|Cameron,Geoffrey|Katharine,Kay|Brad,Gail|Francis,Gwendolyn|Francis,Ellen|Lisa,Jane|Dianne,Kara|Randy,George|Anthony,George|Anthony,Rita|Malcolm,Geraldine|Malcolm,Meredith|Stanley,Christine|Stanley,Charlene|Stanley,Daniel|Stanley,Kara|Vickie,Frances|Geraldine,Gail|Geraldine,Cynthia|Leigh,Kay|Leigh,Miriam|Marshall,Julie|Anita,Denise|Anita,Kathy|Erika,Charles|Edna,Fred|Joan,Juanita|Joan,Vivian|Joan,Jennifer|Christine,Claude|Christine,Daniel|George,Jane|Jacob,Milton|Jacob,Rita|Dale,Ashley|Dale,Emily|Dale,Michele|Dale,Ellen|Dale,Erica|Lorraine,Julie|Lorraine,Alex|Lorraine,Charles|Mike,Juan|Mike,Jane|Ashley,Juanita|Tom,Juanita|Tom,Dean|Leah,David|Julie,Tim|Donald,Tim|Donald,Maurice|Phillip,Ellen|Ben,Jordan|Ben,David|Clara,Renee|Cynthia,Shelley|Stephen,Jan|Stephen,Russell|Max,Kurt|Max,Patsy|Renee,Robert|Frances,Shirley|Frances,Kathy|Justin,Arnold|Claude,Shelley|Carlos,Paul|Andrea,Juan|Andrea,Jane|Kelly,Vivian|Kelly,Kurt|Veronica,Ellen|Veronica,Brenda|Don,Paige|Tony,Dwight|Milton,Henry|Milton,Brenda|David,Denise|Ricky,Judy|Vanessa,Maurice|Curtis,Howard|Michele,Shirley|Michele,Meredith|Jerry,Howard|Maurice,Brenda|Maurice,Monica|Luis,Vivian|Luis,Rita|Judy,Shirley|Gwendolyn,Kathy|Geoffrey,Russell|Judith,Rita|Alex,Howard|Meredith,Howard|Kurt,Patsy|Marianne,Patsy|];
